NAME : 10_3_3_2_(30).dat
COMMENT : Henke, Speranza, Wäscher, 2015
TYPE : MCVRP
DIMENSION : 11
EDGE_WEIGHT_TYPE : DISTANCE_MATRIX
CAPACITY : 1000
VEHICLES : 3
PRODUCT TYPES : 3
COMPARTMENTS : 3
NODE_COORD_SECTION
1 50 50
2 58.75 1.68
3 51 67.77
4 94.47 46.09
5 44.02 77.76
6 67.9 20.85
7 46.41 27.36
8 64.26 86.32
9 59.01 95.52
10 29.61 48.94
11 20.08 5.83
DEMAND_SECTION
1 0 0 0
2 82 16 0
3 82 30 0
4 0 88 87
5 73 111 0
6 165 0 60
7 156 0 42
8 161 151 0
9 0 71 32
10 71 0 118
11 60 43 0
DEPOT_SECTION
1
EOF